4 10 100 1 2
0 200
 1 40.00 50.00 0.00 0.00 0.00 0 0 0 240
 2 25.00 85.00 10.00 20.00 40.00 1 1 1 49 191
 3 22.00 75.00 10.00 30.00 19.00 1 1 1 30 168
 4 22.00 85.00 10.00 10.00 9.00 1 1 1 95 152
 5 20.00 80.00 10.00 40.00 10.00 1 1 1 69 193
 6 20.00 85.00 10.00 20.00 20.00 1 1 1 40 189
 7 18.00 75.00 10.00 20.00 23.00 1 1 1 60 159
 8 15.00 75.00 10.00 20.00 9.00 1 1 1 54 133
 9 15.00 80.00 10.00 10.00 21.00 1 1 1 67 144
 10 10.00 35.00 10.00 20.00 6.00 1 1 1 57 154
 11 10.00 40.00 10.00 30.00 10.00 1 1 1 106 161
 12 8.00 40.00 10.00 40.00 13.00 1 1 1 33 152
 13 8.00 45.00 10.00 20.00 6.00 1 1 1 32 148
 14 5.00 35.00 10.00 10.00 16.00 1 1 1 53 191
 15 5.00 45.00 10.00 10.00 30.00 1 1 1 35 194
 16 2.00 40.00 10.00 20.00 20.00 1 1 1 39 163
 17 0.00 40.00 10.00 20.00 10.00 1 1 1 41 141
 18 0.00 45.00 10.00 20.00 14.00 1 1 1 51 189
 19 44.00 5.00 10.00 20.00 17.00 1 1 1 73 130
 20 42.00 10.00 10.00 40.00 10.00 1 1 1 40 148
 21 42.00 15.00 10.00 10.00 10.00 1 1 1 94 179
 22 40.00 5.00 10.00 10.00 20.00 1 1 1 45 161
 23 40.00 15.00 10.00 40.00 19.00 1 1 1 64 149
 24 38.00 5.00 10.00 30.00 30.00 1 1 1 45 164
 25 38.00 15.00 10.00 10.00 20.00 1 1 1 51 194
 26 35.00 5.00 10.00 20.00 40.00 1 1 1 45 183
 27 95.00 30.00 10.00 30.00 27.00 1 1 1 90 169
 28 95.00 35.00 10.00 20.00 5.00 1 1 1 57 172
 29 92.00 30.00 10.00 10.00 20.00 1 1 1 55 174
 30 90.00 35.00 10.00 10.00 40.00 1 1 1 52 174
 31 88.00 30.00 10.00 10.00 20.00 1 1 1 52 147
 32 88.00 35.00 10.00 20.00 10.00 1 1 1 50 172
 33 87.00 30.00 10.00 10.00 10.00 1 1 1 61 178
 34 85.00 25.00 10.00 10.00 7.00 1 1 1 51 178
 35 85.00 35.00 10.00 30.00 16.00 1 1 1 83 168
 36 67.00 85.00 10.00 20.00 14.00 1 1 1 57 185
 37 65.00 85.00 10.00 40.00 26.00 1 1 1 43 186
 38 65.00 82.00 10.00 10.00 28.00 1 1 1 95 182
 39 62.00 80.00 10.00 30.00 5.00 1 1 1 38 141
 40 60.00 80.00 10.00 10.00 23.00 1 1 1 36 193
 41 60.00 85.00 10.00 30.00 20.00 1 1 1 61 138
 42 58.00 75.00 10.00 20.00 40.00 1 1 1 49 164
 43 55.00 80.00 10.00 10.00 10.00 1 1 1 33 180
 44 55.00 85.00 10.00 20.00 3.00 1 1 1 100 185
 45 55.00 82.00 10.00 10.00 35.00 1 1 1 35 142
 46 20.00 82.00 10.00 10.00 2.00 1 1 1 37 192
 47 18.00 80.00 10.00 10.00 19.00 1 1 1 71 184
 48 2.00 45.00 10.00 10.00 16.00 1 1 1 38 191
 49 42.00 5.00 10.00 10.00 10.00 1 1 1 50 184
 50 42.00 12.00 10.00 10.00 10.00 1 1 1 99 138
 51 72.00 35.00 10.00 30.00 13.00 1 1 1 83 178
 52 55.00 20.00 10.00 19.00 20.00 1 1 1 45 150
 53 25.00 30.00 10.00 3.00 25.00 1 1 1 25 150
 54 20.00 50.00 10.00 5.00 3.00 1 1 1 68 143
 55 55.00 60.00 10.00 16.00 30.00 1 1 1 107 200
 56 30.00 60.00 10.00 16.00 10.00 1 1 1 95 214
 57 50.00 35.00 10.00 19.00 20.00 1 1 1 91 198
 58 30.00 25.00 10.00 23.00 10.00 1 1 1 56 165
 59 15.00 10.00 10.00 20.00 10.00 1 1 1 51 182
 60 10.00 20.00 10.00 19.00 20.00 1 1 1 42 187
 61 15.00 60.00 10.00 17.00 20.00 1 1 1 62 203
 62 45.00 65.00 10.00 9.00 20.00 1 1 1 37 124
 63 65.00 35.00 10.00 3.00 30.00 1 1 1 29 168
 64 65.00 20.00 10.00 6.00 10.00 1 1 1 39 190
 65 45.00 30.00 10.00 17.00 31.00 1 1 1 20 139
 66 35.00 40.00 10.00 16.00 23.00 1 1 1 11 150
 67 41.00 37.00 10.00 16.00 20.00 1 1 1 97 198
 68 64.00 42.00 10.00 9.00 8.00 1 1 1 31 138
 69 40.00 60.00 10.00 21.00 30.00 1 1 1 101 216
 70 31.00 52.00 10.00 27.00 9.00 1 1 1 9 139
 71 35.00 69.00 10.00 23.00 10.00 1 1 1 30 210
 72 65.00 55.00 10.00 14.00 30.00 1 1 1 30 129
 73 63.00 65.00 10.00 8.00 19.00 1 1 1 27 202
 74 2.00 60.00 10.00 5.00 30.00 1 1 1 46 137
 75 20.00 20.00 10.00 8.00 10.00 1 1 1 71 193
 76 5.00 5.00 10.00 16.00 13.00 1 1 1 57 165
 77 60.00 12.00 10.00 31.00 10.00 1 1 1 48 131
 78 23.00 3.00 10.00 7.00 10.00 1 1 1 49 180
 79 8.00 56.00 10.00 27.00 27.00 1 1 1 47 162
 80 6.00 68.00 10.00 30.00 20.00 1 1 1 65 142
 81 47.00 47.00 10.00 13.00 16.00 1 1 1 93 222
 82 49.00 58.00 10.00 10.00 20.00 1 1 1 78 123
 83 27.00 43.00 10.00 9.00 10.00 1 1 1 14 140
 84 37.00 31.00 10.00 14.00 10.00 1 1 1 19 172
 85 57.00 29.00 10.00 18.00 30.00 1 1 1 73 148
 86 63.00 23.00 10.00 2.00 10.00 1 1 1 59 144
 87 21.00 24.00 10.00 28.00 14.00 1 1 1 63 140
 88 12.00 24.00 10.00 13.00 9.00 1 1 1 91 118
 89 24.00 58.00 10.00 19.00 15.00 1 1 1 27 136
 90 67.00 5.00 10.00 25.00 10.00 1 1 1 52 177
 91 37.00 47.00 10.00 6.00 18.00 1 1 1 53 148
 92 49.00 42.00 10.00 13.00 40.00 1 1 1 89 217
 93 53.00 43.00 10.00 14.00 6.00 1 1 1 14 177
 94 61.00 52.00 10.00 3.00 17.00 1 1 1 50 208
 95 57.00 48.00 10.00 23.00 20.00 1 1 1 76 143
 96 56.00 37.00 10.00 6.00 30.00 1 1 1 20 159
 97 55.00 54.00 10.00 26.00 3.00 1 1 1 105 188
 98 4.00 18.00 10.00 35.00 3.00 1 1 1 104 165
 99 26.00 52.00 10.00 9.00 16.00 1 1 1 14 136
 100 26.00 35.00 10.00 15.00 20.00 1 1 1 42 141
 101 31.00 67.00 10.00 3.00 8.00 1 1 1 43 210
